<number of tasks>
20


<number of equipment>
5


<cycle time>
1000


<investment costs>
1,26997
2,27449
3,11702
4,6068
5,11504


<task times>
1,-1,121,-1,-1,325
2,-1,90,348,368,-1
3,85,90,-1,-1,350
4,-1,264,414,521,-1
5,-1,38,310,497,-1
6,110,78,-1,-1,311
7,-1,125,376,511,-1
8,-1,208,411,505,-1
9,-1,109,340,476,-1
10,-1,61,184,431,-1
11,-1,165,461,532,-1
12,125,128,-1,-1,271
13,-1,73,-1,-1,397
14,-1,78,241,500,-1
15,304,221,-1,-1,428
16,203,141,-1,-1,409
17,-1,56,-1,-1,400
18,161,156,-1,-1,416
19,171,124,-1,-1,408
20,-1,153,343,508,-1


<precedence relations>
1,3
1,5
2,4
2,5
3,9
4,6
4,8
4,10
4,14
5,7
5,10
5,14
6,11
7,12
8,13
9,14
10,17
10,18
11,15
12,15
13,15
14,16
15,18
15,19
15,20
16,17
16,20


<task types>
1,1
2,3
3,2
4,3
5,3
6,2
7,3
8,3
9,3
10,3
11,3
12,2
13,1
14,3
15,2
16,2
17,1
18,2
19,2
20,3


<line depot>
1,0
2,3
3,0
4,0
5,0


<processing costs>
1,7200
2,21600
3,7200
4,7200
5,14400


<saving costs>
1,2699
2,2744
3,1170
4,606
5,1150


<end>
